70
1 0 1
2 0 12
2 1 9
3 0 11
3 1 15
3 2 2
4 0 6
4 1 19
4 2 5
4 3 2
5 0 17
5 1 2
5 2 15
5 3 6
5 4 20
6 0 9
6 1 1
6 2 8
6 3 15
6 4 19
6 5 8
7 0 18
7 1 18
7 2 11
7 3 20
7 4 6
7 5 17
7 6 7
8 0 10
8 1 9
8 2 12
8 3 16
8 4 18
8 5 4
8 6 1
8 7 3
9 0 14
9 1 18
9 2 5
9 3 14
9 4 9
9 5 9
9 6 18
9 7 12
9 8 8
10 0 7
10 1 16
10 2 3
10 3 10
10 4 11
10 5 9
10 6 4
10 7 2
10 8 2
10 9 10
11 0 13
11 1 5
11 2 5
11 3 6
11 4 4
11 5 4
11 6 3
11 7 11
11 8 15
11 9 5
11 10 2
12 0 5
12 1 7
12 2 6
12 3 14
12 4 5
12 5 6
12 6 19
12 7 19
12 8 4
12 9 1
12 10 5
12 11 11
13 0 8
13 1 12
13 2 6
13 3 5
13 4 10
13 5 13
13 6 11
13 7 3
13 8 19
13 9 14
13 10 16
13 11 19
13 12 16
14 0 18
14 1 19
14 2 11
14 3 19
14 4 8
14 5 13
14 6 20
14 7 1
14 8 11
14 9 8
14 10 8
14 11 1
14 12 10
14 13 11
15 0 7
15 1 3
15 2 5
15 3 11
15 4 6
15 5 19
15 6 12
15 7 20
15 8 11
15 9 16
15 10 17
15 11 11
15 12 11
15 13 7
15 14 10
16 0 17
16 1 18
16 2 17
16 3 8
16 4 17
16 5 6
16 6 8
16 7 14
16 8 4
16 9 9
16 10 1
16 11 17
16 12 17
16 13 15
16 14 20
16 15 15
17 0 9
17 1 20
17 2 2
17 3 13
17 4 17
17 5 20
17 6 16
17 7 19
17 8 13
17 9 11
17 10 5
17 11 17
17 12 16
17 13 2
17 14 9
17 15 19
17 16 1
18 0 6
18 1 2
18 2 19
18 3 20
18 4 7
18 5 2
18 6 1
18 7 6
18 8 2
18 9 1
18 10 12
18 11 2
18 12 1
18 13 16
18 14 11
18 15 5
18 16 1
18 17 16
19 0 13
19 1 1
19 2 14
19 3 7
19 4 11
19 5 11
19 6 15
19 7 10
19 8 10
19 9 13
19 10 2
19 11 3
19 12 15
19 13 9
19 14 5
19 15 7
19 16 11
19 17 17
19 18 6
20 0 20
20 1 19
20 2 15
20 3 8
20 4 7
20 5 11
20 6 8
20 7 8
20 8 10
20 9 11
20 10 16
20 11 15
20 12 13
20 13 2
20 14 20
20 15 6
20 16 3
20 17 6
20 18 7
20 19 11
21 0 1
21 1 20
21 2 1
21 3 20
21 4 17
21 5 13
21 6 5
21 7 9
21 8 6
21 9 4
21 10 17
21 11 18
21 12 8
21 13 5
21 14 8
21 15 14
21 16 8
21 17 13
21 18 8
21 19 1
21 20 6
22 0 6
22 1 2
22 2 4
22 3 10
22 4 14
22 5 14
22 6 20
22 7 12
22 8 1
22 9 16
22 10 10
22 11 1
22 12 5
22 13 10
22 14 11
22 15 15
22 16 17
22 17 16
22 18 8
22 19 13
22 20 12
22 21 10
23 0 9
23 1 1
23 2 16
23 3 8
23 4 20
23 5 16
23 6 2
23 7 8
23 8 19
23 9 12
23 10 12
23 11 8
23 12 8
23 13 12
23 14 6
23 15 4
23 16 14
23 17 19
23 18 4
23 19 15
23 20 17
23 21 6
23 22 2
24 0 18
24 1 8
24 2 14
24 3 8
24 4 8
24 5 15
24 6 17
24 7 5
24 8 3
24 9 4
24 10 20
24 11 9
24 12 14
24 13 19
24 14 3
24 15 18
24 16 19
24 17 20
24 18 15
24 19 15
24 20 13
24 21 17
24 22 7
24 23 11
25 0 3
25 1 12
25 2 6
25 3 4
25 4 17
25 5 19
25 6 20
25 7 2
25 8 10
25 9 8
25 10 17
25 11 16
25 12 9
25 13 18
25 14 2
25 15 2
25 16 20
25 17 14
25 18 11
25 19 19
25 20 7
25 21 12
25 22 1
25 23 5
25 24 17
26 0 13
26 1 2
26 2 2
26 3 19
26 4 20
26 5 8
26 6 19
26 7 3
26 8 5
26 9 6
26 10 14
26 11 18
26 12 12
26 13 15
26 14 10
26 15 16
26 16 3
26 17 16
26 18 1
26 19 1
26 20 9
26 21 3
26 22 16
26 23 18
26 24 5
26 25 19
27 0 18
27 1 2
27 2 12
27 3 17
27 4 20
27 5 5
27 6 2
27 7 15
27 8 6
27 9 2
27 10 10
27 11 9
27 12 14
27 13 9
27 14 5
27 15 4
27 16 5
27 17 4
27 18 9
27 19 10
27 20 20
27 21 7
27 22 3
27 23 11
27 24 8
27 25 3
27 26 4
28 0 9
28 1 4
28 2 8
28 3 6
28 4 12
28 5 9
28 6 11
28 7 14
28 8 16
28 9 19
28 10 5
28 11 18
28 12 12
28 13 18
28 14 10
28 15 13
28 16 5
28 17 12
28 18 15
28 19 10
28 20 14
28 21 10
28 22 18
28 23 9
28 24 8
28 25 19
28 26 16
28 27 8
29 0 2
29 1 12
29 2 6
29 3 2
29 4 13
29 5 12
29 6 11
29 7 17
29 8 17
29 9 13
29 10 15
29 11 3
29 12 14
29 13 7
29 14 19
29 15 4
29 16 5
29 17 15
29 18 8
29 19 18
29 20 6
29 21 19
29 22 7
29 23 16
29 24 19
29 25 13
29 26 15
29 27 4
29 28 14
30 0 17
30 1 15
30 2 18
30 3 15
30 4 4
30 5 14
30 6 4
30 7 18
30 8 9
30 9 14
30 10 18
30 11 16
30 12 16
30 13 10
30 14 3
30 15 19
30 16 6
30 17 9
30 18 4
30 19 14
30 20 3
30 21 8
30 22 3
30 23 20
30 24 11
30 25 17
30 26 19
30 27 6
30 28 17
30 29 17
31 0 11
31 1 14
31 2 13
31 3 14
31 4 15
31 5 13
31 6 6
31 7 17
31 8 7
31 9 12
31 10 9
31 11 14
31 12 17
31 13 5
31 14 15
31 15 18
31 16 1
31 17 8
31 18 1
31 19 11
31 20 12
31 21 12
31 22 10
31 23 10
31 24 6
31 25 9
31 26 7
31 27 3
31 28 9
31 29 6
31 30 14
32 0 16
32 1 12
32 2 11
32 3 6
32 4 18
32 5 15
32 6 18
32 7 9
32 8 17
32 9 9
32 10 4
32 11 2
32 12 11
32 13 16
32 14 16
32 15 13
32 16 9
32 17 20
32 18 7
32 19 11
32 20 18
32 21 20
32 22 17
32 23 14
32 24 3
32 25 7
32 26 6
32 27 16
32 28 9
32 29 13
32 30 12
32 31 12
33 0 12
33 1 11
33 2 6
33 3 3
33 4 4
33 5 18
33 6 11
33 7 13
33 8 19
33 9 19
33 10 7
33 11 2
33 12 10
33 13 1
33 14 8
33 15 19
33 16 20
33 17 5
33 18 6
33 19 16
33 20 13
33 21 4
33 22 12
33 23 7
33 24 20
33 25 5
33 26 15
33 27 5
33 28 18
33 29 8
33 30 18
33 31 2
33 32 5
34 0 17
34 1 15
34 2 3
34 3 2
34 4 11
34 5 5
34 6 3
34 7 11
34 8 3
34 9 10
34 10 16
34 11 14
34 12 10
34 13 13
34 14 2
34 15 7
34 16 12
34 17 20
34 18 4
34 19 11
34 20 18
34 21 6
34 22 10
34 23 15
34 24 17
34 25 8
34 26 6
34 27 15
34 28 5
34 29 15
34 30 6
34 31 20
34 32 14
34 33 6
35 0 10
35 1 11
35 2 20
35 3 6
35 4 7
35 5 6
35 6 16
35 7 3
35 8 9
35 9 8
35 10 2
35 11 7
35 12 18
35 13 13
35 14 13
35 15 7
35 16 1
35 17 15
35 18 12
35 19 9
35 20 13
35 21 6
35 22 14
35 23 3
35 24 5
35 25 2
35 26 2
35 27 11
35 28 8
35 29 4
35 30 6
35 31 18
35 32 18
35 33 18
35 34 18
36 0 10
36 1 19
36 2 14
36 3 4
36 4 8
36 5 16
36 6 13
36 7 3
36 8 13
36 9 14
36 10 16
36 11 9
36 12 1
36 13 16
36 14 16
36 15 11
36 16 8
36 17 10
36 18 8
36 19 3
36 20 6
36 21 13
36 22 20
36 23 7
36 24 9
36 25 18
36 26 19
36 27 12
36 28 20
36 29 2
36 30 17
36 31 11
36 32 5
36 33 8
36 34 5
36 35 18
37 0 4
37 1 7
37 2 5
37 3 15
37 4 18
37 5 2
37 6 14
37 7 16
37 8 20
37 9 15
37 10 9
37 11 15
37 12 13
37 13 2
37 14 14
37 15 20
37 16 20
37 17 7
37 18 20
37 19 6
37 20 2
37 21 7
37 22 6
37 23 5
37 24 9
37 25 2
37 26 3
37 27 7
37 28 3
37 29 6
37 30 4
37 31 20
37 32 19
37 33 17
37 34 15
37 35 4
37 36 8
38 0 3
38 1 20
38 2 10
38 3 13
38 4 3
38 5 11
38 6 13
38 7 5
38 8 11
38 9 12
38 10 14
38 11 14
38 12 6
38 13 11
38 14 19
38 15 15
38 16 4
38 17 2
38 18 8
38 19 5
38 20 15
38 21 17
38 22 6
38 23 3
38 24 17
38 25 13
38 26 10
38 27 13
38 28 14
38 29 4
38 30 9
38 31 11
38 32 18
38 33 2
38 34 1
38 35 7
38 36 14
38 37 4
39 0 7
39 1 3
39 2 20
39 3 4
39 4 18
39 5 13
39 6 14
39 7 8
39 8 17
39 9 4
39 10 16
39 11 13
39 12 19
39 13 13
39 14 2
39 15 17
39 16 4
39 17 5
39 18 6
39 19 4
39 20 14
39 21 14
39 22 6
39 23 5
39 24 11
39 25 12
39 26 13
39 27 20
39 28 15
39 29 20
39 30 1
39 31 5
39 32 1
39 33 17
39 34 10
39 35 4
39 36 16
39 37 1
39 38 10
40 0 18
40 1 19
40 2 9
40 3 7
40 4 1
40 5 17
40 6 20
40 7 14
40 8 2
40 9 6
40 10 14
40 11 3
40 12 20
40 13 15
40 14 15
40 15 10
40 16 17
40 17 18
40 18 14
40 19 10
40 20 1
40 21 9
40 22 1
40 23 4
40 24 10
40 25 11
40 26 7
40 27 1
40 28 14
40 29 9
40 30 17
40 31 15
40 32 14
40 33 15
40 34 15
40 35 14
40 36 15
40 37 15
40 38 12
40 39 4
41 0 7
41 1 10
41 2 11
41 3 17
41 4 14
41 5 19
41 6 13
41 7 19
41 8 5
41 9 14
41 10 10
41 11 14
41 12 6
41 13 12
41 14 9
41 15 14
41 16 13
41 17 11
41 18 3
41 19 4
41 20 5
41 21 10
41 22 11
41 23 4
41 24 14
41 25 18
41 26 13
41 27 6
41 28 10
41 29 3
41 30 13
41 31 12
41 32 19
41 33 19
41 34 18
41 35 18
41 36 4
41 37 3
41 38 9
41 39 13
41 40 20
42 0 9
42 1 9
42 2 20
42 3 18
42 4 18
42 5 8
42 6 6
42 7 18
42 8 3
42 9 20
42 10 9
42 11 16
42 12 4
42 13 7
42 14 8
42 15 19
42 16 6
42 17 12
42 18 2
42 19 9
42 20 19
42 21 4
42 22 15
42 23 2
42 24 5
42 25 9
42 26 11
42 27 16
42 28 3
42 29 3
42 30 4
42 31 15
42 32 7
42 33 8
42 34 2
42 35 6
42 36 12
42 37 8
42 38 5
42 39 4
42 40 2
42 41 19
43 0 9
43 1 6
43 2 20
43 3 18
43 4 5
43 5 12
43 6 19
43 7 2
43 8 10
43 9 17
43 10 18
43 11 18
43 12 11
43 13 8
43 14 20
43 15 15
43 16 19
43 17 17
43 18 5
43 19 17
43 20 6
43 21 1
43 22 12
43 23 13
43 24 4
43 25 2
43 26 19
43 27 3
43 28 14
43 29 18
43 30 8
43 31 3
43 32 16
43 33 19
43 34 18
43 35 5
43 36 11
43 37 16
43 38 18
43 39 11
43 40 2
43 41 2
43 42 18
44 0 4
44 1 15
44 2 18
44 3 4
44 4 18
44 5 14
44 6 16
44 7 6
44 8 5
44 9 20
44 10 11
44 11 17
44 12 18
44 13 2
44 14 18
44 15 12
44 16 7
44 17 3
44 18 15
44 19 13
44 20 19
44 21 1
44 22 19
44 23 2
44 24 14
44 25 5
44 26 10
44 27 1
44 28 1
44 29 19
44 30 11
44 31 8
44 32 17
44 33 19
44 34 3
44 35 10
44 36 11
44 37 6
44 38 20
44 39 13
44 40 19
44 41 8
44 42 12
44 43 13
45 0 1
45 1 18
45 2 7
45 3 20
45 4 15
45 5 16
45 6 18
45 7 6
45 8 9
45 9 7
45 10 8
45 11 18
45 12 17
45 13 14
45 14 10
45 15 4
45 16 10
45 17 20
45 18 10
45 19 18
45 20 5
45 21 6
45 22 16
45 23 18
45 24 13
45 25 7
45 26 16
45 27 20
45 28 3
45 29 15
45 30 7
45 31 17
45 32 20
45 33 5
45 34 16
45 35 15
45 36 19
45 37 19
45 38 13
45 39 6
45 40 16
45 41 14
45 42 6
45 43 13
45 44 5
46 0 10
46 1 6
46 2 16
46 3 6
46 4 8
46 5 19
46 6 6
46 7 18
46 8 15
46 9 15
46 10 16
46 11 12
46 12 4
46 13 5
46 14 4
46 15 14
46 16 1
46 17 12
46 18 19
46 19 19
46 20 14
46 21 11
46 22 3
46 23 5
46 24 10
46 25 9
46 26 5
46 27 16
46 28 12
46 29 5
46 30 15
46 31 13
46 32 9
46 33 19
46 34 1
46 35 7
46 36 1
46 37 16
46 38 5
46 39 14
46 40 8
46 41 20
46 42 14
46 43 19
46 44 5
46 45 3
47 0 10
47 1 16
47 2 9
47 3 15
47 4 11
47 5 17
47 6 7
47 7 7
47 8 8
47 9 15
47 10 7
47 11 15
47 12 2
47 13 20
47 14 3
47 15 13
47 16 6
47 17 10
47 18 4
47 19 1
47 20 10
47 21 1
47 22 20
47 23 7
47 24 16
47 25 13
47 26 3
47 27 9
47 28 10
47 29 8
47 30 5
47 31 17
47 32 18
47 33 1
47 34 9
47 35 10
47 36 15
47 37 12
47 38 20
47 39 14
47 40 5
47 41 3
47 42 12
47 43 19
47 44 6
47 45 10
47 46 14
48 0 6
48 1 9
48 2 5
48 3 13
48 4 12
48 5 8
48 6 1
48 7 16
48 8 13
48 9 7
48 10 17
48 11 18
48 12 19
48 13 17
48 14 15
48 15 18
48 16 4
48 17 13
48 18 8
48 19 13
48 20 3
48 21 11
48 22 18
48 23 14
48 24 11
48 25 3
48 26 12
48 27 5
48 28 6
48 29 6
48 30 18
48 31 3
48 32 13
48 33 14
48 34 1
48 35 5
48 36 19
48 37 2
48 38 3
48 39 15
48 40 19
48 41 12
48 42 5
48 43 19
48 44 3
48 45 13
48 46 14
48 47 2
49 0 10
49 1 14
49 2 17
49 3 15
49 4 1
49 5 5
49 6 20
49 7 3
49 8 2
49 9 18
49 10 13
49 11 7
49 12 17
49 13 1
49 14 5
49 15 5
49 16 5
49 17 8
49 18 13
49 19 11
49 20 12
49 21 10
49 22 9
49 23 13
49 24 2
49 25 10
49 26 15
49 27 11
49 28 9
49 29 7
49 30 14
49 31 10
49 32 6
49 33 19
49 34 13
49 35 7
49 36 16
49 37 17
49 38 17
49 39 19
49 40 20
49 41 17
49 42 5
49 43 13
49 44 4
49 45 3
49 46 17
49 47 5
49 48 4
50 0 4
50 1 7
50 2 9
50 3 6
50 4 7
50 5 19
50 6 20
50 7 18
50 8 19
50 9 1
50 10 4
50 11 14
50 12 11
50 13 4
50 14 14
50 15 9
50 16 17
50 17 19
50 18 3
50 19 5
50 20 11
50 21 16
50 22 4
50 23 1
50 24 10
50 25 10
50 26 16
50 27 11
50 28 13
50 29 5
50 30 4
50 31 11
50 32 7
50 33 19
50 34 13
50 35 14
50 36 15
50 37 12
50 38 7
50 39 12
50 40 1
50 41 8
50 42 1
50 43 8
50 44 2
50 45 1
50 46 19
50 47 18
50 48 12
50 49 17
51 0 5
51 1 19
51 2 20
51 3 14
51 4 18
51 5 3
51 6 14
51 7 13
51 8 17
51 9 14
51 10 20
51 11 1
51 12 4
51 13 11
51 14 3
51 15 10
51 16 5
51 17 9
51 18 11
51 19 4
51 20 17
51 21 5
51 22 12
51 23 15
51 24 9
51 25 9
51 26 16
51 27 18
51 28 5
51 29 13
51 30 13
51 31 3
51 32 17
51 33 12
51 34 15
51 35 11
51 36 4
51 37 4
51 38 4
51 39 19
51 40 12
51 41 12
51 42 16
51 43 19
51 44 2
51 45 9
51 46 8
51 47 8
51 48 15
51 49 3
51 50 15
52 0 8
52 1 11
52 2 1
52 3 7
52 4 9
52 5 1
52 6 20
52 7 13
52 8 14
52 9 19
52 10 11
52 11 5
52 12 11
52 13 8
52 14 12
52 15 16
52 16 15
52 17 19
52 18 1
52 19 20
52 20 15
52 21 2
52 22 12
52 23 3
52 24 11
52 25 12
52 26 5
52 27 15
52 28 4
52 29 19
52 30 20
52 31 16
52 32 7
52 33 18
52 34 19
52 35 14
52 36 8
52 37 12
52 38 12
52 39 7
52 40 18
52 41 3
52 42 8
52 43 12
52 44 4
52 45 3
52 46 20
52 47 17
52 48 11
52 49 20
52 50 6
52 51 16
53 0 1
53 1 1
53 2 5
53 3 18
53 4 6
53 5 18
53 6 19
53 7 3
53 8 11
53 9 18
53 10 19
53 11 5
53 12 18
53 13 2
53 14 16
53 15 15
53 16 12
53 17 1
53 18 15
53 19 11
53 20 3
53 21 18
53 22 14
53 23 8
53 24 18
53 25 10
53 26 11
53 27 14
53 28 10
53 29 14
53 30 7
53 31 9
53 32 14
53 33 20
53 34 4
53 35 3
53 36 7
53 37 20
53 38 3
53 39 3
53 40 20
53 41 13
53 42 10
53 43 17
53 44 6
53 45 10
53 46 19
53 47 20
53 48 8
53 49 1
53 50 3
53 51 9
53 52 8
54 0 19
54 1 13
54 2 5
54 3 16
54 4 8
54 5 11
54 6 16
54 7 17
54 8 5
54 9 4
54 10 1
54 11 4
54 12 2
54 13 1
54 14 14
54 15 11
54 16 2
54 17 1
54 18 9
54 19 3
54 20 9
54 21 13
54 22 5
54 23 2
54 24 19
54 25 11
54 26 12
54 27 4
54 28 9
54 29 6
54 30 2
54 31 12
54 32 17
54 33 20
54 34 1
54 35 10
54 36 15
54 37 13
54 38 10
54 39 15
54 40 2
54 41 9
54 42 17
54 43 12
54 44 5
54 45 5
54 46 10
54 47 7
54 48 20
54 49 7
54 50 4
54 51 3
54 52 5
54 53 15
55 0 3
55 1 7
55 2 8
55 3 2
55 4 16
55 5 9
55 6 11
55 7 14
55 8 14
55 9 16
55 10 11
55 11 18
55 12 6
55 13 13
55 14 18
55 15 17
55 16 11
55 17 4
55 18 10
55 19 1
55 20 6
55 21 10
55 22 10
55 23 5
55 24 15
55 25 10
55 26 11
55 27 6
55 28 11
55 29 2
55 30 1
55 31 9
55 32 19
55 33 2
55 34 2
55 35 11
55 36 6
55 37 10
55 38 12
55 39 11
55 40 7
55 41 18
55 42 13
55 43 1
55 44 16
55 45 5
55 46 18
55 47 9
55 48 9
55 49 12
55 50 11
55 51 9
55 52 10
55 53 15
55 54 12
56 0 1
56 1 15
56 2 5
56 3 2
56 4 6
56 5 17
56 6 11
56 7 8
56 8 12
56 9 17
56 10 10
56 11 3
56 12 3
56 13 16
56 14 11
56 15 5
56 16 14
56 17 20
56 18 13
56 19 20
56 20 5
56 21 13
56 22 7
56 23 1
56 24 16
56 25 19
56 26 4
56 27 2
56 28 4
56 29 13
56 30 11
56 31 9
56 32 7
56 33 20
56 34 3
56 35 15
56 36 4
56 37 3
56 38 12
56 39 12
56 40 3
56 41 13
56 42 17
56 43 14
56 44 8
56 45 4
56 46 12
56 47 15
56 48 13
56 49 5
56 50 10
56 51 18
56 52 12
56 53 20
56 54 15
56 55 4
57 0 9
57 1 5
57 2 9
57 3 14
57 4 1
57 5 13
57 6 8
57 7 3
57 8 7
57 9 13
57 10 16
57 11 18
57 12 16
57 13 14
57 14 16
57 15 10
57 16 1
57 17 15
57 18 4
57 19 14
57 20 16
57 21 4
57 22 4
57 23 14
57 24 7
57 25 10
57 26 12
57 27 12
57 28 6
57 29 4
57 30 9
57 31 5
57 32 15
57 33 14
57 34 5
57 35 6
57 36 20
57 37 2
57 38 14
57 39 18
57 40 13
57 41 19
57 42 20
57 43 11
57 44 1
57 45 5
57 46 19
57 47 7
57 48 2
57 49 19
57 50 10
57 51 19
57 52 2
57 53 13
57 54 9
57 55 2
57 56 1
58 0 11
58 1 11
58 2 15
58 3 8
58 4 10
58 5 18
58 6 10
58 7 20
58 8 20
58 9 16
58 10 11
58 11 15
58 12 1
58 13 20
58 14 1
58 15 6
58 16 16
58 17 11
58 18 16
58 19 16
58 20 9
58 21 4
58 22 15
58 23 2
58 24 9
58 25 8
58 26 15
58 27 14
58 28 17
58 29 20
58 30 19
58 31 9
58 32 15
58 33 9
58 34 16
58 35 2
58 36 2
58 37 10
58 38 1
58 39 5
58 40 12
58 41 9
58 42 4
58 43 2
58 44 4
58 45 15
58 46 12
58 47 11
58 48 17
58 49 20
58 50 5
58 51 17
58 52 6
58 53 16
58 54 15
58 55 8
58 56 11
58 57 3
59 0 4
59 1 2
59 2 1
59 3 15
59 4 14
59 5 7
59 6 16
59 7 16
59 8 7
59 9 5
59 10 18
59 11 2
59 12 3
59 13 5
59 14 6
59 15 12
59 16 10
59 17 11
59 18 11
59 19 2
59 20 13
59 21 15
59 22 3
59 23 18
59 24 6
59 25 14
59 26 12
59 27 18
59 28 6
59 29 1
59 30 1
59 31 11
59 32 11
59 33 7
59 34 18
59 35 20
59 36 8
59 37 14
59 38 13
59 39 5
59 40 9
59 41 9
59 42 12
59 43 2
59 44 16
59 45 7
59 46 7
59 47 14
59 48 13
59 49 7
59 50 9
59 51 1
59 52 15
59 53 7
59 54 8
59 55 8
59 56 14
59 57 11
59 58 2
60 0 16
60 1 13
60 2 12
60 3 10
60 4 18
60 5 17
60 6 6
60 7 16
60 8 3
60 9 10
60 10 9
60 11 7
60 12 13
60 13 6
60 14 20
60 15 6
60 16 4
60 17 20
60 18 7
60 19 3
60 20 1
60 21 5
60 22 6
60 23 7
60 24 4
60 25 7
60 26 16
60 27 9
60 28 6
60 29 16
60 30 3
60 31 8
60 32 11
60 33 16
60 34 3
60 35 12
60 36 14
60 37 19
60 38 5
60 39 4
60 40 13
60 41 17
60 42 9
60 43 6
60 44 20
60 45 8
60 46 12
60 47 20
60 48 12
60 49 3
60 50 10
60 51 9
60 52 14
60 53 11
60 54 15
60 55 19
60 56 12
60 57 6
60 58 8
60 59 15
61 0 18
61 1 4
61 2 16
61 3 17
61 4 20
61 5 1
61 6 1
61 7 16
61 8 18
61 9 8
61 10 20
61 11 4
61 12 20
61 13 8
61 14 9
61 15 10
61 16 4
61 17 2
61 18 10
61 19 12
61 20 10
61 21 10
61 22 4
61 23 20
61 24 10
61 25 19
61 26 9
61 27 17
61 28 19
61 29 19
61 30 5
61 31 13
61 32 19
61 33 16
61 34 2
61 35 4
61 36 13
61 37 19
61 38 18
61 39 11
61 40 8
61 41 8
61 42 16
61 43 19
61 44 12
61 45 10
61 46 16
61 47 4
61 48 1
61 49 18
61 50 6
61 51 16
61 52 9
61 53 12
61 54 6
61 55 12
61 56 17
61 57 9
61 58 9
61 59 14
61 60 1
62 0 17
62 1 1
62 2 17
62 3 11
62 4 10
62 5 1
62 6 20
62 7 12
62 8 6
62 9 10
62 10 17
62 11 6
62 12 10
62 13 20
62 14 16
62 15 12
62 16 5
62 17 14
62 18 3
62 19 2
62 20 18
62 21 16
62 22 4
62 23 16
62 24 12
62 25 12
62 26 16
62 27 14
62 28 19
62 29 1
62 30 15
62 31 3
62 32 2
62 33 5
62 34 16
62 35 20
62 36 11
62 37 16
62 38 1
62 39 8
62 40 2
62 41 15
62 42 7
62 43 13
62 44 18
62 45 6
62 46 19
62 47 18
62 48 20
62 49 13
62 50 2
62 51 15
62 52 6
62 53 19
62 54 14
62 55 20
62 56 16
62 57 20
62 58 4
62 59 7
62 60 16
62 61 15
63 0 6
63 1 10
63 2 14
63 3 13
63 4 2
63 5 16
63 6 18
63 7 12
63 8 12
63 9 19
63 10 2
63 11 10
63 12 3
63 13 7
63 14 17
63 15 8
63 16 17
63 17 20
63 18 15
63 19 15
63 20 4
63 21 16
63 22 13
63 23 17
63 24 2
63 25 6
63 26 17
63 27 4
63 28 18
63 29 12
63 30 1
63 31 20
63 32 20
63 33 11
63 34 18
63 35 10
63 36 19
63 37 9
63 38 10
63 39 16
63 40 19
63 41 12
63 42 7
63 43 9
63 44 18
63 45 1
63 46 2
63 47 1
63 48 9
63 49 19
63 50 8
63 51 10
63 52 4
63 53 13
63 54 6
63 55 9
63 56 8
63 57 13
63 58 7
63 59 19
63 60 15
63 61 5
63 62 19
64 0 4
64 1 5
64 2 14
64 3 16
64 4 8
64 5 9
64 6 11
64 7 1
64 8 11
64 9 18
64 10 14
64 11 8
64 12 3
64 13 7
64 14 3
64 15 5
64 16 17
64 17 16
64 18 4
64 19 10
64 20 11
64 21 4
64 22 3
64 23 18
64 24 14
64 25 2
64 26 13
64 27 3
64 28 11
64 29 1
64 30 8
64 31 8
64 32 14
64 33 15
64 34 3
64 35 10
64 36 3
64 37 3
64 38 7
64 39 19
64 40 19
64 41 17
64 42 17
64 43 14
64 44 15
64 45 17
64 46 13
64 47 5
64 48 4
64 49 6
64 50 9
64 51 4
64 52 15
64 53 17
64 54 9
64 55 14
64 56 5
64 57 15
64 58 12
64 59 18
64 60 1
64 61 12
64 62 4
64 63 2
65 0 10
65 1 14
65 2 19
65 3 14
65 4 13
65 5 8
65 6 20
65 7 3
65 8 15
65 9 12
65 10 13
65 11 6
65 12 2
65 13 10
65 14 20
65 15 13
65 16 6
65 17 2
65 18 16
65 19 1
65 20 1
65 21 15
65 22 18
65 23 20
65 24 10
65 25 8
65 26 2
65 27 4
65 28 1
65 29 9
65 30 14
65 31 8
65 32 7
65 33 8
65 34 18
65 35 2
65 36 18
65 37 14
65 38 8
65 39 4
65 40 8
65 41 9
65 42 10
65 43 18
65 44 10
65 45 13
65 46 2
65 47 4
65 48 18
65 49 14
65 50 9
65 51 4
65 52 8
65 53 18
65 54 1
65 55 11
65 56 8
65 57 16
65 58 4
65 59 5
65 60 11
65 61 2
65 62 16
65 63 5
65 64 11
66 0 12
66 1 4
66 2 13
66 3 15
66 4 3
66 5 18
66 6 18
66 7 17
66 8 16
66 9 16
66 10 8
66 11 15
66 12 11
66 13 3
66 14 1
66 15 5
66 16 3
66 17 11
66 18 17
66 19 13
66 20 1
66 21 7
66 22 1
66 23 8
66 24 1
66 25 3
66 26 1
66 27 18
66 28 17
66 29 5
66 30 18
66 31 16
66 32 14
66 33 17
66 34 4
66 35 18
66 36 16
66 37 9
66 38 11
66 39 12
66 40 9
66 41 10
66 42 8
66 43 15
66 44 7
66 45 10
66 46 8
66 47 2
66 48 10
66 49 6
66 50 14
66 51 7
66 52 6
66 53 6
66 54 5
66 55 9
66 56 14
66 57 11
66 58 1
66 59 18
66 60 9
66 61 6
66 62 5
66 63 7
66 64 12
66 65 19
67 0 12
67 1 17
67 2 6
67 3 6
67 4 9
67 5 8
67 6 19
67 7 7
67 8 9
67 9 19
67 10 17
67 11 16
67 12 12
67 13 11
67 14 6
67 15 15
67 16 6
67 17 17
67 18 4
67 19 7
67 20 15
67 21 13
67 22 11
67 23 19
67 24 6
67 25 6
67 26 7
67 27 1
67 28 2
67 29 11
67 30 13
67 31 3
67 32 8
67 33 15
67 34 17
67 35 1
67 36 4
67 37 7
67 38 6
67 39 11
67 40 11
67 41 13
67 42 13
67 43 11
67 44 17
67 45 18
67 46 19
67 47 15
67 48 9
67 49 2
67 50 10
67 51 9
67 52 5
67 53 10
67 54 15
67 55 18
67 56 2
67 57 1
67 58 20
67 59 16
67 60 16
67 61 3
67 62 5
67 63 4
67 64 2
67 65 6
67 66 2
68 0 11
68 1 7
68 2 13
68 3 18
68 4 16
68 5 11
68 6 6
68 7 17
68 8 6
68 9 8
68 10 11
68 11 1
68 12 14
68 13 13
68 14 9
68 15 3
68 16 10
68 17 15
68 18 9
68 19 4
68 20 19
68 21 4
68 22 3
68 23 9
68 24 9
68 25 10
68 26 16
68 27 7
68 28 2
68 29 11
68 30 12
68 31 4
68 32 14
68 33 9
68 34 14
68 35 9
68 36 2
68 37 9
68 38 6
68 39 2
68 40 7
68 41 3
68 42 1
68 43 18
68 44 15
68 45 10
68 46 18
68 47 3
68 48 15
68 49 6
68 50 4
68 51 5
68 52 7
68 53 6
68 54 7
68 55 15
68 56 2
68 57 11
68 58 6
68 59 13
68 60 14
68 61 8
68 62 6
68 63 8
68 64 11
68 65 14
68 66 15
68 67 17
69 0 15
69 1 20
69 2 19
69 3 5
69 4 18
69 5 17
69 6 18
69 7 16
69 8 10
69 9 1
69 10 10
69 11 12
69 12 1
69 13 4
69 14 4
69 15 16
69 16 2
69 17 8
69 18 7
69 19 4
69 20 2
69 21 19
69 22 7
69 23 6
69 24 19
69 25 11
69 26 2
69 27 7
69 28 18
69 29 8
69 30 20
69 31 3
69 32 4
69 33 19
69 34 4
69 35 15
69 36 13
69 37 13
69 38 9
69 39 12
69 40 16
69 41 7
69 42 16
69 43 7
69 44 12
69 45 8
69 46 16
69 47 17
69 48 19
69 49 8
69 50 9
69 51 18
69 52 17
69 53 16
69 54 9
69 55 18
69 56 12
69 57 8
69 58 2
69 59 12
69 60 11
69 61 2
69 62 10
69 63 8
69 64 1
69 65 10
69 66 14
69 67 18
69 68 19
